job_count = 16 ;
duration = [|31, 18, 16, 1|12, 16, 19, 3|37, 7, 14, 3|14, 5, 8, 5|25, 29, 8, 4|7, 21, 7, 1|36, 18, 6, 6|39, 7, 16, 9|20, 12, 2, 4|29, 15, 4, 6|4, 5, 16, 1|16, 19, 4, 6|39, 17, 7, 5|31, 18, 6, 8|24, 22, 11, 1|17, 19, 4, 6|] ;
machine_count = 4 ;
cost = [|10, 29, 54, 41|17, 26, 47, 66|13, 20, 43, 73|18, 33, 54, 58|17, 39, 38, 60|10, 33, 33, 41|12, 20, 56, 69|13, 21, 41, 68|18, 24, 36, 51|16, 27, 56, 57|12, 32, 38, 77|10, 32, 37, 46|13, 27, 40, 44|17, 29, 33, 40|11, 31, 36, 65|17, 29, 33, 70|] ;
deadline = [33, 33, 33, 33, 33, 33, 33, 33, 33, 33, 33, 33, 33, 33, 33, 33] ;
release = [0, 0, 0, 0, 0, 0, 0, 0, 0, 0, 0, 0, 0, 0, 0, 0] ;
resource = [|9, 9, 9, 9|7, 7, 7, 7|4, 4, 4, 4|8, 8, 8, 8|5, 5, 5, 5|9, 9, 9, 9|4, 4, 4, 4|3, 3, 3, 3|8, 8, 8, 8|8, 8, 8, 8|6, 6, 6, 6|3, 3, 3, 3|1, 1, 1, 1|5, 5, 5, 5|6, 6, 6, 6|1, 1, 1, 1|] ;
capacities = [10, 10, 10, 10] ;
